
Gurobi 11.0.0 (win64, C++) logging started Mon Jul 28 23:10:30 2025

Set parameter TokenServer to value "141.76.38.119"
### START HEURISTIC APPROACH APPROACH ###
ProblemVariant: 1
### START PREPROCESSING ###
## Start start solution procedure ##
Not enough vehicles for start solution, copying existing vehicle(s)...
Copied 1 vehicle(s). Total vehicles now: 24
Start solution with 23 Vehicles and total costs 1545.68 in 54.2855 s.
### END PREPROCESSING ###
Route 0 0-70-30-1-0 : weight util 0.321429 | volume util 0.464156 | infeasible with packing heuristic | feasible with CP model
Route 1 0-2-73-40-0 : weight util 0.223214 | volume util 0.558044 | infeasible with packing heuristic | feasible with CP model
Route 2 0-4-25-55-0 : weight util 0.241071 | volume util 0.446578 | infeasible with packing heuristic | feasible with CP model
Route 3 0-10-63-90-32-27-0 : weight util 0.607143 | volume util 0.656511 | infeasible with packing heuristic | feasible with CP model
Route 4 0-12-76-0 : weight util 0.285714 | volume util 0.469689 | infeasible with packing heuristic | feasible with CP model
Route 5 0-14-44-38-86-16-0 : weight util 0.964286 | volume util 0.681178 | infeasible with packing heuristic | feasible with CP model
Route 6 0-24-29-79-3-28-0 : weight util 0.571429 | volume util 0.585222 | infeasible with packing heuristic | feasible with CP model
Route 7 0-26-54-0 : weight util 0.312500 | volume util 0.411911 | infeasible with packing heuristic | feasible with CP model
Route 8 0-88-62-31-69-0 : weight util 0.544643 | volume util 0.520911 | infeasible with packing heuristic | feasible with CP model
Route 9 0-34-35-71-65-66-20-51-0 : weight util 0.901786 | volume util 0.669267 | infeasible with packing heuristic | feasible with CP model
Route 10 0-56-39-67-23-75-0 : weight util 0.973214 | volume util 0.600533 | infeasible with packing heuristic | feasible with CP model
Route 11 0-47-36-49-64-11-19-0 : weight util 0.892857 | volume util 0.575711 | infeasible with packing heuristic | feasible with CP model
Route 12 0-52-7-48-82-18-0 : weight util 0.696429 | volume util 0.533778 | infeasible with packing heuristic | feasible with CP model
Route 13 0-53-21-72-74-22-41-0 : weight util 0.723214 | volume util 0.723867 | infeasible with packing heuristic | feasible with CP model
Route 14 0-60-5-0 : weight util 0.258929 | volume util 0.382756 | infeasible with packing heuristic | feasible with CP model
Route 15 0-61-91-100-37-92-0 : weight util 0.366071 | volume util 0.559644 | infeasible with packing heuristic | feasible with CP model
Route 16 0-68-77-13-0 : weight util 0.651786 | volume util 0.632644 | infeasible with packing heuristic | feasible with CP model
Route 17 0-33-78-9-81-50-0 : weight util 0.616071 | volume util 0.733156 | infeasible with packing heuristic | feasible with CP model
Route 18 0-80-0 : weight util 0.053571 | volume util 0.373400 | infeasible with packing heuristic | feasible with CP model
Route 19 0-84-17-45-46-8-83-89-0 : weight util 0.544643 | volume util 0.641089 | infeasible with packing heuristic | feasible with CP model
Route 20 0-87-42-43-15-57-0 : weight util 0.473214 | volume util 0.637800 | infeasible with packing heuristic | feasible with CP model
Route 21 0-58-94-95-59-96-0 : weight util 0.928571 | volume util 0.678400 | infeasible with packing heuristic | feasible with CP model
Route 22 0-6-99-93-85-98-97-0 : weight util 0.866071 | volume util 0.631756 | infeasible with packing heuristic | feasible with CP model
